//OMAC CPLEX Data file

S = 4 ;
N = 16 ;
F = 3 ;
L = 18 ;


servers_Names = ['PopSaclay', 'PopEvry', 'PopParis', 'PopOrly'];
clients_Names = ['eNodeB12', 'eNodeB11', 'eNodeB10', 'HomeBox8', 'HomeBox7', 'eNodeBSarcelles', 'eNodeBCreteil', 'eNodeBLimours', 'Clients12', 'Clients11', 'Clients10', 'Clients8', 'Clients7', 'Clients9', 'Clients6', 'Clients5'];
vcdns_Names = ['NetFlix', 'TF1', 'HBO'];
locations_Names = ['Evry', 'Paris', 'Saclay', 'Issy', 'Chatillon', 'Boulogne', 'Versailles', 'Antony', 'Palaiseau', 'Orly', 'Melun', 'Corbeille', 'Argenteuil', 'Creteil', 'Ivry-sur-Seine', 'Poissy', 'Limours', 'Sarcelles'];


D = [10000, 10000, 10000, 10000];


volume = [None, 860, None, 127];


size_of = [60, 20, 20];


serverLocation = [0, 1, 2, 3];


clientLocation = [16, 6, 14, 7, 12, 7, 12, 8, 7, 15, 13, 11, 14, 11, 9, 13];


serverOf = [0, 3, 1];


d = [
[0, 0, 0] ,
[0, 0, 0] ,
[0, 0, 1.02914] ,
[0, 6.48696, 0] ,
[0, 8.57199, 4.83003] ,
[0, 0, 0] ,
[0, 0, 11.0106] ,
[0, 11.0919, 0] ,
[0, 0, 10.9984] ,
[0, 3.24762, 0] ,
[0, 11.9066, 0] ,
[0, 0, 0] ,
[0, 0, 4.05367] ,
[0, 11.6621, 0] ,
[0, 3.467, 15.231] ,
[0, 0, 0] ,
];


C = [
[0, 94, 75, 47, 0, 0, 0, 0, 0, 0, 0, 0, 0, 0, 0, 0, 0, 0] ,
[94, 0, 0, 0, 97, 32, 78, 0, 0, 0, 0, 0, 0, 0, 0, 0, 0, 0] ,
[75, 0, 0, 0, 0, 0, 0, 85, 70, 27, 0, 0, 0, 0, 0, 0, 0, 0] ,
[47, 0, 0, 0, 0, 0, 0, 0, 0, 0, 62, 31, 18, 0, 0, 0, 0, 0] ,
[0, 97, 0, 0, 0, 0, 0, 0, 0, 0, 0, 0, 0, 92, 11, 71, 0, 0] ,
[0, 32, 0, 0, 0, 0, 0, 0, 0, 0, 0, 0, 0, 0, 0, 0, 12, 39] ,
[0, 78, 0, 0, 0, 0, 0, 0, 0, 0, 0, 0, 0, 0, 0, 0, 0, 0] ,
[0, 0, 85, 0, 0, 0, 0, 0, 0, 0, 0, 0, 0, 0, 0, 0, 0, 0] ,
[0, 0, 70, 0, 0, 0, 0, 0, 0, 0, 0, 0, 0, 0, 0, 0, 0, 0] ,
[0, 0, 27, 0, 0, 0, 0, 0, 0, 0, 0, 0, 0, 0, 0, 0, 0, 0] ,
[0, 0, 0, 62, 0, 0, 0, 0, 0, 0, 0, 0, 0, 0, 0, 0, 0, 0] ,
[0, 0, 0, 31, 0, 0, 0, 0, 0, 0, 0, 0, 0, 0, 0, 0, 0, 0] ,
[0, 0, 0, 18, 0, 0, 0, 0, 0, 0, 0, 0, 0, 0, 0, 0, 0, 0] ,
[0, 0, 0, 0, 92, 0, 0, 0, 0, 0, 0, 0, 0, 0, 0, 0, 0, 0] ,
[0, 0, 0, 0, 11, 0, 0, 0, 0, 0, 0, 0, 0, 0, 0, 0, 0, 0] ,
[0, 0, 0, 0, 71, 0, 0, 0, 0, 0, 0, 0, 0, 0, 0, 0, 0, 0] ,
[0, 0, 0, 0, 0, 12, 0, 0, 0, 0, 0, 0, 0, 0, 0, 0, 0, 0] ,
[0, 0, 0, 0, 0, 39, 0, 0, 0, 0, 0, 0, 0, 0, 0, 0, 0, 0] ,
];


hopcount = [
[0, 1, 1, 1] ,
[1, 0, 2, 2] ,
[1, 2, 0, 2] ,
[1, 2, 2, 0] ,
];


migrationCostK = [
[1.0, 1.0, 1.0, 1.0] ,
[1.0, 1.0, 1.0, 1.0] ,
[1.0, 1.0, 1.0, 1.0] ,
[1.0, 1.0, 1.0, 1.0] ,
];
